NAME: ville04
TYPE: LRP
COMMENT: 61 point distrubués uniform
DIMENSION: 61
DISPLAY_DATA_SECTION
    1     22.0     65.0
    2     51.0     32.0
    3      1.0     35.0
    4     36.0     24.0
    5     25.0     58.0
    6     34.0     48.0
    7     48.0     57.0
    8     24.0      3.0
    9     44.0      4.0
   10      3.0     49.0
   11     45.0     64.0
   12     29.0     42.0
   13     49.0     19.0
   14     33.0     37.0
   15     46.0     66.0
   16     32.0     10.0
   17     21.0     30.0
   18     54.0     44.0
   19     26.0     22.0
   20      7.0     25.0
   21     64.0     41.0
   22     52.0     14.0
   23     61.0     45.0
   24     30.0     31.0
   25     67.0     28.0
   26     14.0     56.0
   27     56.0     55.0
   28     40.0     54.0
   29     31.0     15.0
   30     20.0     62.0
   31     63.0     16.0
   32     59.0     63.0
   33     13.0     18.0
   34     62.0      7.0
   35     68.0     27.0
   36     19.0     33.0
   37     41.0     52.0
   38     18.0      9.0
   39     15.0      8.0
   40     28.0     51.0
   41     58.0     21.0
   42      2.0      2.0
   43     17.0     60.0
   44     35.0     53.0
   45     60.0     12.0
   46     23.0     38.0
   47     65.0     34.0
   48     42.0     43.0
   49     53.0     68.0
   50     57.0     11.0
   51     66.0      1.0
   52      4.0     69.0
   53     38.0     50.0
   54     69.0     20.0
   55     12.0      6.0
   56      8.0     61.0
   57     16.0     59.0
   58     43.0     47.0
   59     10.0     36.0
   60     50.0     17.0
   61      8.0     11.0
EOF
